; benchmark generated from python API
(set-info :status unknown)
(declare-fun Y () (_ BitVec 8))
(declare-fun X () (_ BitVec 8))
(assert
 (let ((?x18 (concat (ite (bvslt Y (_ bv0 8)) (_ bv255 8) (_ bv0 8)) Y)))
 (let (($x28 (= ?x18 (_ bv0 16))))
 (let ((?x15 (concat (ite (bvslt X (_ bv0 8)) (_ bv255 8) (_ bv0 8)) X)))
 (let ((?x26 (ite (bvsgt ?x18 (_ bv0 16)) (_ bv1 16) (_ bv0 16))))
 (let ((?x44 (ite (bvslt ?x15 (_ bv0 16)) (_ bv1 16) (_ bv0 16))))
 (let ((?x50 (bvand (bvand ?x44 ?x26) (ite (bvslt ?x15 (ite $x28 (_ bv0 16) (bvsdiv (_ bv65408 16) ?x18))) (_ bv1 16) (_ bv0 16)))))
 (let ((?x41 (ite (bvslt ?x18 (ite (= ?x15 (_ bv0 16)) (_ bv0 16) (bvsdiv (_ bv65408 16) ?x15))) (_ bv1 16) (_ bv0 16))))
 (let ((?x35 (ite (bvslt ?x18 (_ bv0 16)) (_ bv1 16) (_ bv0 16))))
 (let ((?x24 (ite (bvsgt ?x15 (_ bv0 16)) (_ bv1 16) (_ bv0 16))))
 (let ((?x42 (bvand (bvand ?x24 ?x35) ?x41)))
 (let (($x119 (or (and (distinct ?x42 (_ bv0 16)) true) (and (distinct ?x50 (_ bv0 16)) true))))
 (let (($x9 (bvsmul_noudfl X Y)))
 (let (($x10 (not $x9)))
 (and (distinct $x10 $x119) true)))))))))))))))
(check-sat)
